InboundTrucks  = 12;
OutboundTrucks = 8;
InboundDoors   = 2;
OutboundDoors  = 1;
ReleaseTime    = [10,4,5,4,3,11,11,12,1,1,9,7];
UnloadTime     = [10,11,12,4,9,3,4,3,12,4,10,11];
LoadTime       = [7,2,3,8,11,8,12,9];
TransferTime   = [| 1,0,0,0,1,0,1,0 | 0,0,0,0,1,0,0,0 | 0,2,0,0,0,3,4,0 | 5,0,0,0,1,0,2,0 | 5,1,4,0,0,0,0,0 | 5,5,3,5,0,5,0,2 | 0,0,0,0,5,0,0,0 | 0,3,4,0,1,0,1,0 | 0,0,0,3,1,0,0,0 | 0,0,0,0,0,3,4,3 | 0,0,1,0,2,0,0,2 | 3,0,1,4,0,0,0,4 |];
